p cnf 20 9
e 1 0
a 2 3 0
e 4 5 0
a 6 0
e 7 0
a 8 9 0
e 10 11 0
a 12 13 0
e 14 15 0
a 16 0
e 17 18 0
a 19 20 0
-14 -11 1 17 15 0
-9 12 10 0
-15 -20 4 0
-9 5 -8 13 6 0
-17 2 1 4 0
-16 7 18 1 -20 0
5 4 11 0
-1 11 -2 0
14 7 10 -5 -15 0
